3 
4  38 53 
5  07 25 43 
6  03 18 33 45 
7  00 15 30 45 
8  00 15 30 45 
9  00 15 30 45 
10  00 15 30 45 
11  00 15 30 45 
12  00 15 30 45 
13  00 16 31 46 
14  01 16 31 46 
15  01 16 31 46 
16  01 16 31 46 
17  01 16 31 46 
18  01 16 31 46 
19  01 15 30 45 
20  00 15 30 45 
21  00 15 30 45 
22  00 15 30 45 
23  00 13 35 
0 
